(set-info :smt-lib-version 2.6)
(set-logic QF_FP)
(set-option :produce-models true)
(set-info :source |Random FP created by PyMPF|)
(set-info :license |https://www.gnu.org/licenses/gpl-3.0.html|)
(set-info :category random)
(set-info :status sat)
(declare-const x Float32)
(assert (= x (fp #b0 #b11111111 #b11010011111001101111000)))
;; x should be Float32(NaN)

(declare-const y Float32)
(assert (= y (fp #b1 #b10010101 #b00100000100111010100011)))
;; y should be Float32(0xCA904EA3 [Rational(-9457315, 2), -4728657.500000])

(declare-const z Float32)
(assert (= z (fp #b0 #b10010100 #b10000001010010101000110)))
;; z should be Float32(0x4A40A546 [Rational(6312611, 2), 3156305.500000])

(declare-const result Float32)
(assert (= result (fp.fma RNE x y z)))
(assert (= result ((_ to_fp 8 24) #xFFFFFFFF)))
(check-sat)
(exit)
